(set-logic QF_S)
(declare-fun var0 () String)
(declare-fun var1 () String)
(declare-fun var2 () String)
(declare-fun var3 () String)
(declare-fun var4 () Int)
(declare-fun var5 () Int)
(declare-fun var6 () Int)
(declare-fun var7 () Int)
(assert (<= (str.to.int (str.replace var0 var1 var2)) (str.len "-dr#{")))
(assert (str.suffixof (str.substr (str.substr var3 var4 var5) (str.to.int var3) (str.len var2)) (str.at (str.at var3 var6) (str.len var2))))
(assert (str.prefixof var2 var2))
(assert (>= 157 var7))
(check-sat)